benchmarks/VRPTW/TSPTW/solution/n100w20.003.txt.solution
1 98 36 62 34 35 61 39 58 7 48 16 94 27 78 97 54 22 21 17 71 84 51 26 69 99 14 57 86 93 80 37 76 90 87 46 50 49 23 9 10 44 19 72 91 53 67 79 66 74 55 77 92 73 6 88 45 5 24 13 11 32 31 82 95 15 8 12 33 81 18 41 60 43 65 25 56 75 38 83 59 2 89 52 40 3 4 100 20 42 47 68 64 63 29 28 96 70 85 101 30 
762
